x04m06e0t1tp5
3224
3224
3224
3224
3249
3285
3285
3285
3285
3370
3370
3370
3370
3370
3370
3370
3370
3370
3370
3370
3370
3370
3370
3370
3370
3370
3370
3370
3370
3370
3370
3370
3370
3379
3379
3379
3379
3379
3379
3379
3379
3379
3379
3379
3379
3379
3379
3379
3379
3379
3379
3379
3379
3379
3379
3379
3379
3379
3379
3379
3379
3379
3379
3379
3379
3379
3379
3379
3379
3379
3379
3379
3379
3379
3379
3379
3379
3379
3379
3379
3379
3379
3379
3379
3379
3379
3379
3379
3379
3379
3379
3379
3379
3379
3379
3379
3379
3379
3379
3401
3401
3401
3401
3401
3401
3401
3401
3401
3401
3401
3401
3401
3401
3401
3401
3401
3401
3401
3401
3401
3401
3401
3401
3401
3401
3433
3433
3433
3433
3433
3433
3433
3433
3433
3433
3433
3433
3458
3458
3458
3458
3458
3458
3458
3458
3458
3458
3458
3458
3458
3458
3458
3458
3458
3458
3458
3458
3458
3458
3458
3458
3458
3458
3458
3458
3458
3458
3458
3458
3458
3458
3458
3458
3458
3458
3458
3458
3458
3458
3458
3458
3458
3458
3496
3496
3496
3496
3496
3496
3496
3496
3496
3496
3496
3496
3496
3496
3496
3496
3496
3496
3496
3496
3496
3496
3496
3496
3496
3496
3496
3496
3496
3496
3496
3496
3496
3496
3496
3496
3496
3496
3496
3496
3496
3496
3496
3496
3496
3496
3496
3496
3496
3496
3496
3496
3496
3496
3496
3496
3496
3496
3496
3496
3496
3496
3496
3496
3496
3496
3496
3496
3496
3496
3496
3496
3496
3496
3496
3496
3496
3496
3496
3496
3496
3496
3496
3496
3496
3496
3496
3496
3496
3496
3496
3496
3496
3496
3496
3496
3496
3496
3496
3496
3496
3496
3496
3496
3496
3496
3496
3496
3496
3496
3496
3496
3496
3496
3496
3496
3496
3496
3496
3496
3496
3496
3496
3496
3496
3496
3496
3496
3496
3496
3496
3496
3496
3496
3496
3496
3496
3496
3496
3496
3496
3496
3496
3496
3496
3496
3496
3496
3496
3496
3496
3496
3496
3496
3496
3496
3496
3496
3496
3496
3496
3496
3496
3496
3496
3496
3496
3496
3496
3496
3496
3496
3496
3496
3496
3496
3496
3496
3496
3496
3496
3496
3496
3496
3496
3496
3496
3496
3496
3496
3496
3496
3496
3496
3496
3496
3496
3496
3496
3496
3496
3496
3496
3496
3496
3496
3496
3496
3496
3496
3496
3496
3496
3496
3496
3496
3496
3496
3496
3496
3496
3496
3496
3496
3496
3496
3496
3496
3496
3496
3496
3496
3496
3496
3496
3496
3496
3496
3496
3496
3496
3496
3496
3496
3496
3496
3496
3496
3496
3496
3496
3496
3496
3496
3496
3496
3496
3496
3496
3496
3496
3496
3496
3496
3496
3496
3496
3496
3496
3496
3496
3496
3496
3496
3496
3496
3496
3496
3496
3496
3496
3496
3496
3496
3496
3496
3496
3496
3496
3496
3496
3496
3496
3496
3496
3496
3496
3496
3496
3496
3496
3496
3496
3496
3496
3496
3496
3496
3496
3496
3496
3496
3496
3496
3496
3496
3496
3496
3496
3496
3496
3496
3496
3496
3496
3496
3496
3496
3496
3496
3496
3496
3496
3496
3496
3496
3496
3496
3496
3496
3496
3496
3496
3496
3496
3496
3496
3496
3496
3496
3496
3496
3496
3496
3496
3496
3496
3496
3496
3496
3496
3496
3496
3496
3496
3496
3496
3496
3496
3496
3496
3496
3496
3496
3496
3496
3496
3496
3496
3496
3496
3496
3496
3496
3496
3496
3496
3496
3496
3496
3496
3496
3496
3496
3496
3496
3496
3496
3496
3496
3496
3496
3496
3496
3496
3496
3496
3496
3496
3496
3496
3496
3496
3496
3496
3496
3496
3496
3496
3496
3496
3496
3496
3496
3496
3496
3496
3496
3496
3496
3496
3496
3496
3496
3496
3496
3496
3496
3496
3496
3496
3496
3496
3496
3496
3496
3496
3496
3496
3496
3496
3496
3496
3496
3496
3496
3496
3496
3496
3496
3496
3496
3496
3496
3496
3496
3496
3496
3496
3496
3496
3496
3496
3496
3496
3496
3496
3496
3496
3496
3496
3496
3496
3496
3496
3496
3496
3496
3496
3496
3496
3496
3496
3496
3496
3496
3496
3496
3496
3496
3496
3496
3496
3496
3496
3496
3496
3496
3496
3496
3496
3496
3496
3496
3496
3496
3496
3496
3496
3496
3496
3496
3496
3496
3496
3496
3496
3496
3496
3496
3496
3496
3496
3496
3496
3496
3496
3531
3531
3531
3531
3531
3531
3531
3531
3531
3531
3531
3531
3531
3531
3531
3531
3531
3531
3531
3531
3531
3531
3531
3531
3531
3531
3531
3531
3531
3531
3531
3531
3531
3531
3531
3531
3531
3531
3531
3531
3531
3531
3531
3531
3531
3531
3531
3531
3531
3531
3531
3531
3531
3531
3531
3531
3531
3531
3531
3531
3531
3531
3531
3531
3531
3531
3531
3531
3531
3531
3531
3531
3531
3531
3531
3531
3531
3531
3531
3531
3531
3531
3531
3531
3531
3531
3531
3531
3531
3531
3531
3531
3531
3531
3531
3531
3531
3531
3531
3531
3531
3531
3531
3531
3531
3531
3531
3531
3531
3531
3531
3531
3531
3531
3531
3531
3531
3531
3531
3531
3531
3531
3531
3531
3531
3546
3546
3546
3546
3546
3546
3546
3546
3546
3546
3546
3546
3546
3546
3546
3546
3546
3546
3546
3546
3546
3546
3546
3546
3546
3546
3546
3546
3546
3546
3546
3546
3546
3546
3546
3546
3546
3546
3546
3546
3546
3546
3546
3546
3546
3546
3546
3546
3546
3546
3546
3546
3546
3546
3546
3546
3546
3546
3546
3546
3546
3546
3546
3546
3546
3546
3546
3546
3546
3546
3546
3546
3546
3546
3546
3546
3546
3546
3546
3546
3546
3546
3546
3546
3546
3546
3546
3546
3546
3546
3546
3546
3546
3546
3546
3546
3546
3546
3546
3546
3546
3546
3546
3546
3546
3546
3546
3546
3546
3546
3546
3546
3546
3546
3546
3546
3546
3546
3546
3546
3546
3546
3546
3546
3546
3546
3546
3546
3546
3546
3546
3546
3546
3546
3546
3546
3546
3546
3546
3546
3546
3546
3546
3546
3546
3546
3546
3546
3546
3546
3546
3546
3546
3546
3546
